Gurobi Optimizer version 9.1.0 build v9.1.0rc0 (linux64)
Thread count: 8 physical cores, 16 logical processors, using up to 16 threads
Optimize a model with 8808 rows, 8160 columns and 44380 nonzeros
Model fingerprint: 0x100f78ed
Variable types: 0 continuous, 8160 integer (8160 binary)
Coefficient statistics:
  Matrix range     [1e+00, 1e+00]
  Objective range  [1e+01, 1e+04]
  Bounds range     [1e+00, 1e+00]
  RHS range        [1e+00, 1e+02]
Presolve removed 20 rows and 20 columns
Presolve time: 0.11s
Presolved: 8788 rows, 8140 columns, 44340 nonzeros
Variable types: 0 continuous, 8140 integer (8140 binary)
Found heuristic solution: objective 51747.000000

Concurrent LP optimizer: primal simplex, dual simplex, and barrier
Showing barrier log only...

Root barrier log...

Ordering time: 0.02s

Barrier statistics:
 Dense cols : 80
 AA' NZ     : 3.814e+04
 Factor NZ  : 1.672e+05 (roughly 8 MBytes of memory)
 Factor Ops : 5.868e+06 (less than 1 second per iteration)
 Threads    : 6

                  Objective                Residual
Iter       Primal          Dual         Primal    Dual     Compl     Time
   0   5.48429256e+06 -3.94547734e+04  8.79e+01 0.00e+00  1.63e+03     0s
   1   9.58702579e+04 -5.72463155e+05  6.86e-01 4.85e+02  3.69e+01     0s
   2   5.69091682e+04 -8.99335993e+03  3.13e-02 7.13e+01  2.65e+00     0s
   3   5.33005863e+04  2.16427111e+04  6.50e-03 3.44e+01  1.26e+00     0s
   4   4.96152717e+04  4.05809139e+04  9.25e-04 6.64e+00  3.59e-01     0s
   5   4.73585148e+04  4.22877092e+04  4.29e-04 3.72e+00  2.02e-01     0s
   6   4.63104481e+04  4.33145373e+04  2.63e-04 1.77e+00  1.19e-01     0s
   7   4.57823347e+04  4.36386753e+04  1.88e-04 1.23e+00  8.54e-02     0s
   8   4.54697258e+04  4.38118753e+04  1.45e-04 9.30e-01  6.60e-02     0s
   9   4.52029970e+04  4.39333770e+04  1.10e-04 7.32e-01  5.06e-02     0s
  10   4.49785956e+04  4.40183848e+04  8.06e-05 5.83e-01  3.82e-02     0s
  11   4.48010124e+04  4.40955581e+04  5.80e-05 4.38e-01  2.81e-02     0s
  12   4.46777601e+04  4.41596433e+04  4.28e-05 3.14e-01  2.06e-02     0s
  13   4.46086286e+04  4.42001043e+04  3.43e-05 2.28e-01  1.63e-02     0s
  14   4.45286409e+04  4.42205346e+04  2.54e-05 1.78e-01  1.23e-02     0s
  15   4.44564777e+04  4.42506552e+04  1.73e-05 1.06e-01  8.20e-03     0s
  16   4.44332300e+04  4.42594490e+04  1.47e-05 8.42e-02  6.92e-03     0s
  17   4.43989690e+04  4.42664125e+04  1.11e-05 6.51e-02  5.28e-03     0s
  18   4.43653466e+04  4.42747887e+04  7.54e-06 4.34e-02  3.61e-03     1s
  19   4.43477853e+04  4.42787423e+04  5.69e-06 3.30e-02  2.75e-03     1s
  20   4.43303203e+04  4.42815966e+04  3.91e-06 2.48e-02  1.94e-03     1s
  21   4.43208429e+04  4.42848289e+04  2.96e-06 1.56e-02  1.44e-03     1s
  22   4.43151615e+04  4.42854634e+04  2.39e-06 1.38e-02  1.18e-03     1s
  23   4.43123245e+04  4.42864319e+04  2.11e-06 1.12e-02  1.03e-03     1s
  24   4.43035467e+04  4.42884926e+04  1.26e-06 5.08e-03  6.00e-04     1s
  25   4.43005453e+04  4.42896947e+04  9.72e-07 1.58e-03  4.32e-04     1s
  26   4.42983115e+04  4.42899169e+04  7.53e-07 1.05e-03  3.35e-04     1s
  27   4.42933732e+04  4.42900757e+04  2.80e-07 6.24e-04  1.31e-04     1s
  28   4.42903666e+04  4.42902909e+04  4.32e-09 5.17e-05  3.02e-06     1s
  29   4.42903126e+04  4.42903125e+04  4.24e-11 1.45e-06  3.17e-09     1s

Barrier solved model in 29 iterations and 0.63 seconds
Optimal objective 4.42903126e+04


Solved with barrier

Root relaxation: objective 4.429031e+04, 1826 iterations, 0.51 seconds

    Nodes    |    Current Node    |     Objective Bounds      |     Work
 Expl Unexpl |  Obj  Depth IntInf | Incumbent    BestBd   Gap | It/Node Time

     0     0 44290.3125    0  981 51747.0000 44290.3125  14.4%     -    1s
H    0     0                    44933.000000 44290.3125  1.43%     -    1s
H    0     0                    44782.000000 44290.3125  1.10%     -    1s
H    0     0                    44477.000000 44290.3125  0.42%     -    1s
     0     0 44309.8966    0 1095 44477.0000 44309.8966  0.38%     -    1s
     0     0 44309.8966    0  962 44477.0000 44309.8966  0.38%     -    2s
     0     0 44326.8450    0 1219 44477.0000 44326.8450  0.34%     -    2s
     0     0 44451.0000    0 1075 44477.0000 44451.0000  0.06%     -    3s
     0     0 44451.0000    0 1214 44477.0000 44451.0000  0.06%     -    3s

Cutting planes:
  Gomory: 3
  Zero half: 145

Explored 1 nodes (3268 simplex iterations) in 3.39 seconds
Thread count was 16 (of 16 available processors)

Solution count 4: 44477 44782 44933 51747 

Optimal solution found (tolerance 1.00e-04)
Best objective 4.447700000000e+04, best bound 4.447700000000e+04, gap 0.0000%

User-callback calls 1324, time in user-callback 0.01 sec
['/opt/local/stow/gurobi910/linux64/lib/libgurobi91.so']
Optimal Result: runtime=3.05sec; objective=44477
Solution written to /autofs/unityaccount/cremi/mdeboute/Bureau/multi-period-flp/solution/instSingle_I20_J100_T4_0_result.txt
